(set-logic QF_S)
(declare-fun var0 () String)
(assert (str.in.re var0 (re.++ (re.* (re.union (str.to.re "000") (str.to.re "111"))) (re.++ (re.union (re.* (str.to.re "222")) (re.* (str.to.re "3"))) (re.++ (re.+ (re.+ (str.to.re "444"))) (re.++ (re.* (re.* (str.to.re "55"))) (re.++ (re.union (re.* (str.to.re "66")) (re.* (str.to.re "777"))) (re.++ (re.+ (re.* (str.to.re "88"))) (re.++ (re.+ (re.+ (str.to.re "99"))) (re.++ (re.union (re.+ (str.to.re "aaa")) (re.+ (str.to.re "bbb"))) (re.++ (re.union (re.union (str.to.re "cc") (str.to.re "d")) (re.union (str.to.re "ee") (str.to.re "f"))) (re.++ (re.+ (re.union (str.to.re "gg") (str.to.re "hh"))) (re.++ (re.* (re.* (str.to.re "iii"))) (re.++ (re.* (re.union (str.to.re "jjj") (str.to.re "kk"))) (re.++ (re.+ (re.+ (str.to.re "lll"))) (re.++ (re.+ (re.+ (str.to.re "mm"))) (re.++ (re.* (re.union (str.to.re "nnn") (str.to.re "oo"))) (re.++ (re.union (re.* (str.to.re "pp")) (re.* (str.to.re "q"))) (re.++ (re.+ (re.* (str.to.re "rrr"))) (re.++ (re.* (re.union (str.to.re "ss") (str.to.re "t"))) (re.++ (re.* (re.* (str.to.re "uuu"))) (re.++ (re.* (re.union (str.to.re "v") (str.to.re "www"))) (re.++ (re.union (re.+ (str.to.re "x")) (re.+ (str.to.re "yyy"))) (re.++ (re.union (re.* (str.to.re "zz")) (re.* (str.to.re "AAA"))) (re.++ (re.union (re.* (str.to.re "BB")) (re.* (str.to.re "CCC"))) (re.++ (re.+ (re.* (str.to.re "DDD"))) (re.++ (re.union (re.* (str.to.re "EE")) (re.* (str.to.re "F"))) (re.++ (re.* (re.* (str.to.re "G"))) (re.++ (re.+ (re.union (str.to.re "HHH") (str.to.re "III"))) (re.++ (re.union (re.+ (str.to.re "JJ")) (re.+ (str.to.re "K"))) (re.++ (re.+ (re.+ (str.to.re "LL"))) (re.++ (re.union (re.union (str.to.re "MMM") (str.to.re "N")) (re.union (str.to.re "OOO") (str.to.re "P"))) (re.++ (re.* (re.* (str.to.re "Q"))) (re.++ (re.union (re.+ (str.to.re "RR")) (re.+ (str.to.re "SSS"))) (re.++ (re.union (re.+ (str.to.re "TT")) (re.+ (str.to.re "UUU"))) (re.++ (re.union (re.union (str.to.re "VVV") (str.to.re "W")) (re.union (str.to.re "X") (str.to.re "YYY"))) (re.++ (re.+ (re.+ (str.to.re "Z"))) (re.++ (re.* (re.+ (str.to.re "!!!"))) (re.++ (re.* (re.union (str.to.re """") (str.to.re "##"))) (re.++ (re.* (re.union (str.to.re "$$$") (str.to.re "%%%"))) (re.++ (re.+ (re.* (str.to.re "&&"))) (re.++ (re.+ (re.+ (str.to.re "''"))) (re.++ (re.+ (re.union (str.to.re "((") (str.to.re ")))"))) (re.++ (re.+ (re.* (str.to.re "***"))) (re.++ (re.union (re.union (str.to.re "++") (str.to.re ",")) (re.union (str.to.re "--") (str.to.re ".."))) (re.++ (re.union (re.* (str.to.re "//")) (re.* (str.to.re ":::"))) (re.++ (re.union (re.* (str.to.re ";")) (re.* (str.to.re "<<"))) (re.++ (re.union (re.union (str.to.re "==") (str.to.re ">>>")) (re.union (str.to.re "??") (str.to.re "@"))) (re.++ (re.union (re.+ (str.to.re "[[")) (re.+ (str.to.re "\\\\"))) (re.++ (re.union (re.* (str.to.re "]")) (re.* (str.to.re "^"))) (re.++ (re.+ (re.* (str.to.re "___"))) (re.++ (re.union (re.* (str.to.re "```")) (re.* (str.to.re "{"))) (re.++ (re.union (re.+ (str.to.re "||")) (re.+ (str.to.re "}}}"))) (re.++ (re.union (re.union (str.to.re "~") (str.to.re "000")) (re.union (str.to.re "111") (str.to.re "2"))) (re.++ (re.* (re.union (str.to.re "3") (str.to.re "444"))) (re.++ (re.+ (re.+ (str.to.re "5"))) (re.++ (re.* (re.+ (str.to.re "6"))) (re.++ (re.+ (re.* (str.to.re "7"))) (re.union (re.union (str.to.re "88") (str.to.re "999")) (re.union (str.to.re "aaa") (str.to.re "b")))))))))))))))))))))))))))))))))))))))))))))))))))))))))))))
(check-sat)